NAME : swiss42.1948.tour
COMMENT : Cost = 412_1948
COMMENT : Found by LKH [Keld Helsgaun] Thu Nov 16 17:47:03 2017
TYPE : TOUR
DIMENSION : 46
TOUR_SECTION
1
2
7
6
20
14
27
19
13
12
26
11
5
46
30
25
40
29
45
8
15
17
16
38
18
37
36
32
43
4
9
42
24
41
22
10
3
28
44
33
21
34
35
39
23
31
-1
EOF
